%%% static parameters %%%
timespan = 1;
Fact = [3];
Distr1 = [10];
Distr2 = [20];
Clients_N = [40];
Demand_W = [15];
Lt0 = [4];
Lt1 = [4];
SS_ = [0.85];
DS_D = [7];
K = [200];
MA = [500];
%%% dynamic parameters %%%
lost_ratio_sales_ret_th = 0.03679684589170129;
lost_ratio_sales_ret_w = 19;
lost_ratio_sales_dis_th = 0.6743235722458475;
lost_ratio_sales_dis_w = 9;
lost_ratio_sales_fac_th = 0.6833226327129054;
lost_ratio_sales_fac_w = 71;
stock_customer_MA_mean_relative_th = 0.4651178012349666;
stock_customer_MA_mean_relative_w = 16;
stock_distributor_MA_mean_relative_th = 0.8769578636609474;
stock_distributor_MA_mean_relative_w = 93;
stock_retailer_MA_mean_relative_th = 0.4566670062755216;
stock_retailer_MA_mean_relative_w = 29;
stock_factory_MA_mean_relative_th = 0.6697401358589974;
stock_factory_MA_mean_relative_w = 70;
